p cnf 25 52
8 16 -18 -8 0
-14 2 19 -17 0
8 -8 20 -12 0
-15 -4 -25 0
-15 18 6 7 0
24 19 6 0
-24 -5 -2 -10 0
-3 -18 0
24 -23 18 20 0
-6 -13 5 23 0
1 -14 23 0
-7 5 23 0
24 18 15 0
-22 18 -18 0
-9 0
-16 -8 0
19 25 -13 0
8 22 -25 0
-6 0
-1 0
8 -15 -22 3 0
21 14 0
25 7 0
-21 -20 13 6 0
11 -20 20 0
-5 -13 6 -17 0
-5 20 -9 0
-6 -22 12 13 0
16 0
19 6 0
22 0
7 -18 15 -15 -11 0
9 -23 15 17 19 0
18 0
2 20 0
8 -6 0
1 2 7 16 -3 0
-6 11 0
-4 -3 0
-4 5 6 0
7 -20 13 15 19 0
-25 0
16 9 11 -1 0
8 -23 13 -14 -6 0
-24 24 -1 -10 0
2 15 -16 22 25 0
1 5 -8 -4 -3 0
2 -22 22 0
-15 11 20 0
-15 0
-4 0
-21 7 0
